
;this file is automatically generated: Mon Nov 05 13:14:49 GMT 2018

;declarations generated

(declare-fun type_a9fa3c5f_f6cb_4523_8633_915fa2567fb6_B ( Int) Bool )
(declare-fun type_85615104_470c_447e_8280_2e3f1ddb6265_A ( Int) Bool )
(declare-fun oclExcludes ( Int Int) Bool )
(declare-fun oclSelect ( Int Bool) Int )
(declare-fun obj_666df839_a37c_4240_adfb_598741243210 ( Int) Int )
(declare-fun type_841286e9_fab3_4a6e_b651_2cfe7df3f285_C ( Int) Bool )
(declare-fun Cardinality ( Int) Int )
(declare-fun type_9df8fd4d_0427_4893_bfdf_b0068a1d11f2_D ( Int) Bool )
(declare-fun container_ ( Int) Int )
(declare-fun oclIncludes ( Int Int) Bool )
(declare-fun aux1 () Int )
(declare-fun aux0 () Int )
(declare-fun aux3 () Int )
(declare-fun aux2 () Int )
(declare-fun aux4 () Int )
(declare-fun weight4 () Int )
(declare-fun weight3 () Int )
(declare-fun ObjAt ( Int Int) Int )
(declare-fun weight2 () Int )
(declare-fun weight1 () Int )
(declare-fun weight0 () Int )

;formula(s) generated
(assert (and (>= aux0 0) (<= aux0 1)))
(assert (or (or (forall ((b Int)) (=> (and ( type_a9fa3c5f_f6cb_4523_8633_915fa2567fb6_B b )  ( type_85615104_470c_447e_8280_2e3f1ddb6265_A b ) ) (forall ((c Int)) (=> (and ( type_841286e9_fab3_4a6e_b651_2cfe7df3f285_C c )  ( type_85615104_470c_447e_8280_2e3f1ddb6265_A c ) ) (not (= ( obj_666df839_a37c_4240_adfb_598741243210 b )  ( obj_666df839_a37c_4240_adfb_598741243210 c ) ) ))))) (and (= aux0 1) true)) (and (= aux0 0) false)))
(assert (and (=> (= aux0 0) (= weight0 1)) (=> (= aux0 1) (= weight0 0))))
(assert (and (>= aux1 0) (<= aux1 1)))
(assert (and (>= aux2 0) (<= aux2 1)))
(assert (and (>= aux3 0) (<= aux3 1)))
(assert (and (>= aux4 0) (<= aux4 1)))
(assert (or (or (exists ((p Int)) ( type_85615104_470c_447e_8280_2e3f1ddb6265_A ( obj_666df839_a37c_4240_adfb_598741243210 p )  ) ) (and (= aux1 1) true)) (and (= aux1 0) false)))
(assert (and (=> (= aux1 0) (= weight1 1)) (=> (= aux1 1) (= weight1 0))))
(assert (or (or (exists ((p Int)) (and ( type_a9fa3c5f_f6cb_4523_8633_915fa2567fb6_B ( obj_666df839_a37c_4240_adfb_598741243210 p )  )  ( type_85615104_470c_447e_8280_2e3f1ddb6265_A ( obj_666df839_a37c_4240_adfb_598741243210 p )  ) )) (and (= aux2 1) true)) (and (= aux2 0) false)))
(assert (and (=> (= aux2 0) (= weight2 1)) (=> (= aux2 1) (= weight2 0))))
(assert (or (or (exists ((p Int)) (and ( type_841286e9_fab3_4a6e_b651_2cfe7df3f285_C ( obj_666df839_a37c_4240_adfb_598741243210 p )  )  ( type_85615104_470c_447e_8280_2e3f1ddb6265_A ( obj_666df839_a37c_4240_adfb_598741243210 p )  ) )) (and (= aux3 1) true)) (and (= aux3 0) false)))
(assert (and (=> (= aux3 0) (= weight3 1)) (=> (= aux3 1) (= weight3 0))))
(assert (or (or (exists ((p Int)) (and (and (and ( type_9df8fd4d_0427_4893_bfdf_b0068a1d11f2_D ( obj_666df839_a37c_4240_adfb_598741243210 p )  )  ( type_85615104_470c_447e_8280_2e3f1ddb6265_A ( obj_666df839_a37c_4240_adfb_598741243210 p )  ) ) ( type_a9fa3c5f_f6cb_4523_8633_915fa2567fb6_B ( obj_666df839_a37c_4240_adfb_598741243210 p )  ) ) ( type_841286e9_fab3_4a6e_b651_2cfe7df3f285_C ( obj_666df839_a37c_4240_adfb_598741243210 p )  ) )) (and (= aux4 1) true)) (and (= aux4 0) false)))
(assert (and (=> (= aux4 0) (= weight4 1)) (=> (= aux4 1) (= weight4 0))))
(assert (= (+ (+ (+ (+ weight0 weight1) weight2) weight3) weight4) 4))
(assert (not (and (and (and (and (= weight0 0) (= weight1 1)) (= weight2 1)) (= weight3 1)) (= weight4 1)) ))
(assert (not (and (and (and (and (= weight0 1) (= weight1 1)) (= weight2 1)) (= weight3 1)) (= weight4 0)) ))
